cases/matpower/case7_tplgy.m
ipopt
ACP
[warn | PowerModels]: added zero cost function data for dclines
[warn | PowerModels]: active storage unit 1 is connected to inactive bus 6
[warn | PowerModels]: active branch 6 is connected to inactive bus 6
[warn | PowerModels]: active branch 7 is connected to inactive bus 6
[warn | PowerModels]: active dcline 2 is connected to inactive bus 6
[info | PowerModels]: removing 1 cost terms from generator 1: [100.0, 0.0]
[info | PowerModels]: removing 1 cost terms from generator 2: [100.0, 0.0]
[info | PowerModels]: removing 1 cost terms from generator 3: [1000.0, 0.0]
[info | PowerModels]: removing 3 cost terms from dcline 1: Float64[]
[info | PowerModels]: removing 3 cost terms from dcline 2: Float64[]
[info | PowerModels]: removing 3 cost terms from dcline 3: Float64[]

******************************************************************************
This program contains Ipopt, a library for large-scale nonlinear optimization.
 Ipopt is released as open source code under the Eclipse Public License (EPL).
         For more information visit http://projects.coin-or.org/Ipopt
******************************************************************************

This is Ipopt version 3.13.2, running with linear solver mumps.
NOTE: Other linear solvers might be more efficient (see Ipopt documentation).

Number of nonzeros in equality constraint Jacobian...:       18
Number of nonzeros in inequality constraint Jacobian.:        8
Number of nonzeros in Lagrangian Hessian.............:        0

Total number of variables............................:       13
                     variables with only lower bounds:        0
                variables with lower and upper bounds:        7
                     variables with only upper bounds:        0
Total number of equality constraints.................:       10
Total number of inequality constraints...............:        4
        inequality constraints with only lower bounds:        2
   inequality constraints with lower and upper bounds:        0
        inequality constraints with only upper bounds:        2

iter    objective    inf_pr   inf_du lg(mu)  ||d||  lg(rg) alpha_du alpha_pr  ls
   0  1.1999988e+01 1.11e+00 1.40e-14  -1.0 0.00e+00    -  0.00e+00 0.00e+00   0
   1  1.7039117e+03 1.11e-02 1.49e+02  -1.0 1.61e+00  -4.0 6.51e-03 9.90e-01h  1
   2  1.7208308e+03 1.10e-04 9.80e+00  -1.0 1.61e-02  -4.5 1.00e+00 9.90e-01h  1
   3  1.7210000e+03 2.22e-16 1.00e-06  -1.0 1.59e-04  -5.0 1.00e+00 1.00e+00h  1
   4  1.7210000e+03 3.33e-16 1.50e-09  -3.8 2.17e-12  -5.4 1.00e+00 1.00e+00h  1
   5  1.7210000e+03 1.11e-16 3.32e-13  -8.6 2.72e-15  -5.9 1.00e+00 1.00e+00h  1

Number of Iterations....: 5

                                   (scaled)                 (unscaled)
Objective...............:   1.7210000000000002e+02    1.7210000000000002e+03
Dual infeasibility......:   3.3193172060790033e-13    3.3193172060790033e-12
Constraint violation....:   1.1102230246251565e-16    1.1102230246251565e-16
Complementarity.........:   2.5059035597098796e-09    2.5059035597098794e-08
Overall NLP error.......:   2.5059035597098796e-09    2.5059035597098794e-08


Number of objective function evaluations             = 6
Number of objective gradient evaluations             = 6
Number of equality constraint evaluations            = 6
Number of inequality constraint evaluations          = 6
Number of equality constraint Jacobian evaluations   = 1
Number of inequality constraint Jacobian evaluations = 1
Number of Lagrangian Hessian evaluations             = 1
Total CPU secs in IPOPT (w/o function evaluations)   =      0.258
Total CPU secs in NLP function evaluations           =      0.209

EXIT: Optimal Solution Found.
This is Ipopt version 3.13.2, running with linear solver mumps.
NOTE: Other linear solvers might be more efficient (see Ipopt documentation).

Number of nonzeros in equality constraint Jacobian...:       67
Number of nonzeros in inequality constraint Jacobian.:       16
Number of nonzeros in Lagrangian Hessian.............:       94

Total number of variables............................:       30
                     variables with only lower bounds:        0
                variables with lower and upper bounds:       24
                     variables with only upper bounds:        0
Total number of equality constraints.................:       22
Total number of inequality constraints...............:        8
        inequality constraints with only lower bounds:        2
   inequality constraints with lower and upper bounds:        0
        inequality constraints with only upper bounds:        6

The equality constraints contain an invalid number

Number of Iterations....: 0

Number of objective function evaluations             = 0
Number of objective gradient evaluations             = 1
Number of equality constraint evaluations            = 1
Number of inequality constraint evaluations          = 1
Number of equality constraint Jacobian evaluations   = 1
Number of inequality constraint Jacobian evaluations = 1
Number of Lagrangian Hessian evaluations             = 0
Total CPU secs in IPOPT (w/o function evaluations)   =      1.027
Total CPU secs in NLP function evaluations           =      0.022

EXIT: Invalid number in NLP function or derivative detected.
Time to Solution........:1.1220619678497314
